x = 14;
y = 13;
c = 77;
n = 28;

p = [59  91  22  84  28  28  73  38  37  48  68  86  96  55  71  92  20  12  12  21  68  90  75  97  12  56  47  79];
w = [4  6  2  5  5  8  2  5  5  2  1  10  9  7  6  9  8  8  1  9  8  9  9  7  5  7  2  1];
s = [10  4  8  7  1  2  6  9  1  6  9  11  1  12  7  2  2  11  10  3  4  5  10  1  9  1  7  1];
